cost: 1151.34
Route 1:           0    7    6   35   45   20    0
Route 2:           0   21   15   46   42    0
Route 3:           0   22   23    5   14    3   31    0
Route 4:           0   29   38   50    1   48   34   11   19    0
Route 5:           0   32   12    9   40   18    0
Route 6:           0   37    4    8   36   30    0
Route 7:           0   41   13   10   25   17    2   39   24    0
Route 8:           0   44   27   43   28    0
Route 9:           0   49   16   47   33   26    0
